10	5
0	5	2	4	5	3	1
1	1	7
2	1	6
3	3	7	8	6
4	2	10	9
5	2	10	9
6	1	11
7	1	11
8	1	11
9	1	11
10	1	11
11	0
0	0	0	0	0	0	0
1	7	3	5	0	4	3
2	9	0	2	0	0	0
3	3	1	0	0	2	4
4	10	0	1	1	1	4
5	8	0	0	0	4	5
6	2	1	5	1	2	4
7	3	0	1	0	0	0
8	4	0	2	0	0	1
9	1	1	4	0	0	0
10	5	0	0	0	0	1
11	0	0	0	0	0	0
3	6	4	6	7
